12
0 1 11
0 2 7
0 3 82
0 4 74
0 5 12
0 6 27
0 7 48
0 8 1
0 9 24
0 10 46
0 11 4
1 0 11
1 2 84
1 3 63
1 4 7
1 5 24
1 6 16
1 7 9
1 8 70
1 9 5
1 10 97
1 11 53
2 0 7
2 1 84
2 3 11
2 4 77
2 5 41
2 6 12
2 7 1
2 8 1
2 9 41
2 10 83
2 11 67
3 0 82
3 1 63
3 2 11
3 4 7
3 5 2
3 6 71
3 7 42
3 8 73
3 9 78
3 10 75
3 11 60
4 0 74
4 1 7
4 2 77
4 3 7
4 5 46
4 6 50
4 7 53
4 8 5
4 9 54
4 10 14
4 11 100
5 0 12
5 1 24
5 2 41
5 3 2
5 4 46
5 6 13
5 7 22
5 8 85
5 9 50
5 10 82
5 11 14
6 0 27
6 1 16
6 2 12
6 3 71
6 4 50
6 5 13
6 7 23
6 8 1
6 9 48
6 10 23
6 11 56
7 0 48
7 1 9
7 2 1
7 3 42
7 4 53
7 5 22
7 6 23
7 8 46
7 9 46
7 10 89
7 11 54
8 0 1
8 1 70
8 2 1
8 3 73
8 4 5
8 5 85
8 6 1
8 7 46
8 9 53
8 10 47
8 11 65
9 0 24
9 1 5
9 2 41
9 3 78
9 4 54
9 5 50
9 6 48
9 7 46
9 8 53
9 10 72
9 11 37
10 0 46
10 1 97
10 2 83
10 3 75
10 4 14
10 5 82
10 6 23
10 7 89
10 8 47
10 9 72
10 11 23
11 0 4
11 1 53
11 2 67
11 3 60
11 4 100
11 5 14
11 6 56
11 7 54
11 8 65
11 9 37
11 10 23
